objective value:                 3.30426299937775e-06
x_1_1                                               1 	(obj:0)
x_2_2                                               1 	(obj:0)
x_3_1                                1.00000000000003 	(obj:0)
x_4_2                                               1 	(obj:0)
x_5_2                                               1 	(obj:0)
x_6_2                                               1 	(obj:0)
x_7_1                                               1 	(obj:0)
x_8_2                                               1 	(obj:0)
x_9_1                                               1 	(obj:0)
x_10_2                                              1 	(obj:0)
x_11_2                                              1 	(obj:0)
x_12_2                                              1 	(obj:0)
x_13_2                                              1 	(obj:0)
x_14_2                                              1 	(obj:0)
x_15_2                                              1 	(obj:0)
x_16_2                                              1 	(obj:0)
x_17_2                                              1 	(obj:0)
x_18_2                                              1 	(obj:0)
x_19_2                                              1 	(obj:0)
x_20_1                                              1 	(obj:0)
x_21_2                                              1 	(obj:0)
x_22_1                                              1 	(obj:0)
x_23_1                                              1 	(obj:0)
x_24_1                                              1 	(obj:0)
x_25_2                                              1 	(obj:0)
x_26_2                                              1 	(obj:0)
x_27_1                                              1 	(obj:0)
x_28_1                                              1 	(obj:0)
x_29_2                                              1 	(obj:0)
x_30_1                                              1 	(obj:0)
ind_1                                               1 	(obj:0)
abs_1_2                                             1 	(obj:0)
ind_2                                               1 	(obj:0)
epsI                             3.30426299937775e-06 	(obj:1)
prodt_x_29_2_t_x_30_1_irrev1_2_1                    1 	(obj:0)
prodt_x_29_2_t_x_30_1_irrev2_2_1                    1 	(obj:0)
prodt_x_3_1_t_x_4_1_more_coh_1           2.1921698854 	(obj:0)
prodt_x_7_1_t_x_9_1_more_coh_1            5.665281304 	(obj:0)
prodt_x_9_1_t_x_10_1_more_coh_1          4.1984293568 	(obj:0)
prodt_x_20_1_t_x_21_1_more_coh_1     3.24268263933333 	(obj:0)
prodt_x_22_1_t_x_23_1_more_coh_1         3.7401336235 	(obj:0)
prodt_x_23_1_t_x_24_1_more_coh_1          2.734408222 	(obj:0)
prodt_x_24_1_t_x_25_1_more_coh_1         2.1738516868 	(obj:0)
prodt_x_27_1_t_x_30_1_more_coh_1          2.968987748 	(obj:0)
prodt_x_28_1_t_x_29_1_more_coh_1     1.10749942133333 	(obj:0)
prodt_x_2_2_t_x_3_2_more_coh_2       7.74261620799999 	(obj:0)
prodt_x_4_2_t_x_5_2_more_coh_2          13.3525545095 	(obj:0)
prodt_x_5_2_t_x_8_2_more_coh_2          8.79772873825 	(obj:0)
prodt_x_6_2_t_x_7_2_more_coh_2           11.721501663 	(obj:0)
prodt_x_8_2_t_x_9_2_more_coh_2           4.6787181748 	(obj:0)
prodt_x_10_2_t_x_12_2_more_coh_2          6.212361434 	(obj:0)
prodt_x_11_2_t_x_13_2_more_coh_2          5.524522953 	(obj:0)
prodt_x_12_2_t_x_13_2_more_coh_2         3.1430699703 	(obj:0)
prodt_x_13_2_t_x_14_2_more_coh_2     3.95791917816667 	(obj:0)
prodt_x_14_2_t_x_15_2_more_coh_2     5.64732328866667 	(obj:0)
prodt_x_15_2_t_x_16_2_more_coh_2     3.63149172966667 	(obj:0)
prodt_x_16_2_t_x_17_2_more_coh_2     5.42957243433333 	(obj:0)
prodt_x_17_2_t_x_18_2_more_coh_2          4.051762714 	(obj:0)
prodt_x_18_2_t_x_19_2_more_coh_2         3.1249930438 	(obj:0)
prodt_x_19_2_t_x_21_2_more_coh_2    0.946474837333333 	(obj:0)
prodt_x_21_2_t_x_22_2_more_coh_2         1.0047012947 	(obj:0)
prodt_x_25_2_t_x_27_2_more_coh_2          2.152554723 	(obj:0)
prodt_x_26_2_t_x_29_2_more_coh_2   0.0953236725000001 	(obj:0)
prodt_x_2_2_t_x_5_1_more_irrev1_2_1     0.49788637485053 	(obj:0)
prodt_x_3_1_t_x_4_2_more_irrev1_2_1   -0.214282650101742 	(obj:0)
prodt_x_4_2_t_x_5_1_more_irrev1_2_1     2.05507391176802 	(obj:0)
prodt_x_5_2_t_x_7_1_more_irrev1_2_1    -1.58578449889169 	(obj:0)
prodt_x_6_2_t_x_7_1_more_irrev1_2_1     -1.7535899177878 	(obj:0)
prodt_x_7_1_t_x_10_2_more_irrev1_2_1     1.33807787726719 	(obj:0)
prodt_x_8_2_t_x_13_1_more_irrev1_2_1    -1.46028804006625 	(obj:0)
prodt_x_9_1_t_x_10_2_more_irrev1_2_1     1.17357052201954 	(obj:0)
prodt_x_10_2_t_x_13_1_more_irrev1_2_1      1.6870612779081 	(obj:0)
prodt_x_11_2_t_x_12_1_more_irrev1_2_1   -0.351948165020781 	(obj:0)
prodt_x_12_2_t_x_13_1_more_irrev1_2_1    -0.87762115793339 	(obj:0)
prodt_x_13_2_t_x_14_1_more_irrev1_2_1    -1.42411241430403 	(obj:0)
prodt_x_14_2_t_x_17_1_more_irrev1_2_1   -0.636211314330689 	(obj:0)
prodt_x_15_2_t_x_16_1_more_irrev1_2_1     1.17102789063276 	(obj:0)
prodt_x_16_2_t_x_19_1_more_irrev1_2_1    0.832072293897461 	(obj:0)
prodt_x_17_2_t_x_18_1_more_irrev1_2_1     1.14051596922852 	(obj:0)
prodt_x_18_2_t_x_22_1_more_irrev1_2_1    -1.45798722404538 	(obj:0)
prodt_x_19_2_t_x_24_1_more_irrev1_2_1    0.891050551113646 	(obj:0)
prodt_x_20_1_t_x_21_2_more_irrev1_2_1     1.69271584904929 	(obj:0)
prodt_x_21_2_t_x_25_1_more_irrev1_2_1    -2.47037624213547 	(obj:0)
prodt_x_22_1_t_x_28_2_more_irrev1_2_1    0.577365133466008 	(obj:0)
prodt_x_23_1_t_x_24_2_more_irrev1_2_1    0.600187767635188 	(obj:0)
prodt_x_24_1_t_x_26_2_more_irrev1_2_1   -0.851779844875867 	(obj:0)
prodt_x_25_2_t_x_29_1_more_irrev1_2_1   -0.352308907456938 	(obj:0)
prodt_x_26_2_t_x_28_1_more_irrev1_2_1    0.140410778471651 	(obj:0)
prodt_x_27_1_t_x_28_2_more_irrev1_2_1                    1 	(obj:0)
prodt_x_28_1_t_x_30_2_more_irrev1_2_1                    1 	(obj:0)
prodt_x_2_2_t_x_5_1_more_irrev2_2_1    -0.49788637485053 	(obj:0)
prodt_x_3_1_t_x_4_2_more_irrev2_2_1    0.214282650101742 	(obj:0)
prodt_x_4_2_t_x_5_1_more_irrev2_2_1    -2.05507391176802 	(obj:0)
prodt_x_5_2_t_x_7_1_more_irrev2_2_1     1.58578449889169 	(obj:0)
prodt_x_6_2_t_x_7_1_more_irrev2_2_1      1.7535899177878 	(obj:0)
prodt_x_7_1_t_x_10_2_more_irrev2_2_1    -1.33807787726719 	(obj:0)
prodt_x_8_2_t_x_13_1_more_irrev2_2_1     1.46028804006625 	(obj:0)
prodt_x_9_1_t_x_10_2_more_irrev2_2_1    -1.17357052201954 	(obj:0)
prodt_x_10_2_t_x_13_1_more_irrev2_2_1     -1.6870612779081 	(obj:0)
prodt_x_11_2_t_x_12_1_more_irrev2_2_1    0.351948165020786 	(obj:0)
prodt_x_12_2_t_x_13_1_more_irrev2_2_1    0.877621157933388 	(obj:0)
prodt_x_13_2_t_x_14_1_more_irrev2_2_1     1.42411241430403 	(obj:0)
prodt_x_14_2_t_x_17_1_more_irrev2_2_1    0.636211314330689 	(obj:0)
prodt_x_15_2_t_x_16_1_more_irrev2_2_1    -1.17102789063276 	(obj:0)
prodt_x_16_2_t_x_19_1_more_irrev2_2_1   -0.832072293897461 	(obj:0)
prodt_x_17_2_t_x_18_1_more_irrev2_2_1    -1.14051596922852 	(obj:0)
prodt_x_18_2_t_x_22_1_more_irrev2_2_1     1.45798722404538 	(obj:0)
prodt_x_19_2_t_x_24_1_more_irrev2_2_1   -0.891050551113645 	(obj:0)
prodt_x_20_1_t_x_21_2_more_irrev2_2_1    -1.69271584904929 	(obj:0)
prodt_x_21_2_t_x_25_1_more_irrev2_2_1     2.47037624213547 	(obj:0)
prodt_x_22_1_t_x_28_2_more_irrev2_2_1   -0.577365133466008 	(obj:0)
prodt_x_23_1_t_x_24_2_more_irrev2_2_1   -0.600187767635192 	(obj:0)
prodt_x_24_1_t_x_26_2_more_irrev2_2_1    0.851779844875867 	(obj:0)
prodt_x_25_2_t_x_29_1_more_irrev2_2_1    0.352308907456938 	(obj:0)
prodt_x_26_2_t_x_28_1_more_irrev2_2_1   -0.140410778471651 	(obj:0)
prodt_x_27_1_t_x_28_2_more_irrev2_2_1                    1 	(obj:0)
prodt_x_28_1_t_x_30_2_more_irrev2_2_1                    1 	(obj:0)
SCIP Status        : solving was interrupted [time limit reached]
Total Time         :    3600.01
  solving          :    3600.01
  presolving       :       0.10 (included in solving)
  reading          :       0.00
  copying          :       1.10 (116 #copies) (minimal 0.00, maximal 0.02, average 0.01)
Original Problem   :
  Problem name     : ../instances/Pot3NonCycle/Pot3NonCycle_T_30B_1t.txt.spa
  Variables        : 141 (140 binary, 0 integer, 0 implicit integer, 1 continuous)
  Constraints      : 263 initial, 263 maximal
  Objective sense  : maximize
Presolved Problem  :
  Problem name     : t_../instances/Pot3NonCycle/Pot3NonCycle_T_30B_1t.txt.spa
  Variables        : 910 (132 binary, 0 integer, 16 implicit integer, 762 continuous)
  Constraints      : 3141 initial, 3403 maximal
Presolvers         :   ExecTime  SetupTime  Calls  FixedVars   AggrVars   ChgTypes  ChgBounds   AddHoles    DelCons    AddCons   ChgSides   ChgCoefs
  boundshift       :       0.00       0.00      0          0          0          0          0          0          0          0          0          0
  components       :       0.00       0.00      1          0          0          0          0          0          0          0          0          0
  convertinttobin  :       0.00       0.00      0          0          0          0          0          0          0          0          0          0
  domcol           :       0.00       0.00      1          0          0          0          0          0          0          0          0          0
  dualagg          :       0.00       0.00      0          0          0          0          0          0          0          0          0          0
  dualinfer        :       0.00       0.00      0          0          0          0          0          0          0          0          0          0
  gateextraction   :       0.00       0.00      3          0          0          0          0          0        108         34          0          0
  implfree         :       0.00       0.00      0          0          0          0          0          0          0          0          0          0
  implics          :       0.00       0.00      4          0          0          0          0          0          0          0          0          0
  inttobinary      :       0.00       0.00      0          0          0          0          0          0          0          0          0          0
  redvub           :       0.00       0.00      0          0          0          0          0          0          0          0          0          0
  stuffing         :       0.00       0.00      1          0          0          0          0          0          0          0          0          0
  trivial          :       0.00       0.00      7          0          0          0          0          0          0          0          0          0
  tworowbnd        :       0.00       0.00      0          0          0          0          0          0          0          0          0          0
  dualfix          :       0.00       0.00      7          4          0          0          0          0          0          0          0          0
  genvbounds       :       0.00       0.00      0          0          0          0          0          0          0          0          0          0
  probing          :       0.06       0.00      1          0          0          0          4          0          0          0          0          0
  pseudoobj        :       0.00       0.00      0          0          0          0          0          0          0          0          0          0
  varbound         :       0.00       0.00      9          0          0          0          0          0         28         28          0          0
  setppc           :       0.00       0.00     12          0          0          0          0          0          0          0          0          0
  and              :       0.00       0.00      4          0         12          0          0          0         12          0          0          0
  linear           :       0.01       0.00      9          3          1          0          4          0          7          0         12         12
  logicor          :       0.00       0.00      7          0          0          0          0          0          0          0          0          0
  bounddisjunction :       0.00       0.00      0          0          0          0          0          0          0          0          0          0
  quadratic        :       0.02       0.00      2          0          0          0          0          0          0       2971          0          0
  root node        :          -          -      -          1          -          -         15          -          -          -          -          -
Constraints        :     Number  MaxNumber  #Separate #Propagate    #EnfoLP    #EnfoPS     #Check   #ResProp    Cutoffs    DomReds       Cuts    Applied      Conss   Children
  integral         :          0          0          0          0    1822595          0     349339          0          0      42206          0          0          4    2964440
  varbound         :       1365       1365         17    7775476     337432          0     347515    1093465      25506   12082117       1420       1420          0          0
  setppc           :        160+       161         17    7519561     335269          0     224674    1358797       1069    1551402          0          0          0          0
  and              :         22         22     189470     724830      42626          0     219747      61205          0      23629       9918       9910          0          0
  linear           :       1539       1539         17    7768056     327021          0     206866     941914     165273   45123437   15616329   15615788          0          0
  logicor          :         55+       285          9     925538          0          0          0     236442       1534       6185          0          0          0          0
  bounddisjunction :          0+       145          0    2564033          0          0          0      41834       2591     810419          0          0          0          0
  countsols        :          0          0          0          0          4          0        141          0          0          0          0          0          0          0
Constraint Timings :  TotalTime  SetupTime   Separate  Propagate     EnfoLP     EnfoPS      Check    ResProp    SB-Prop
  integral         :      23.68       0.00       0.00       0.00      23.63       0.00       0.05       0.00       0.00
  varbound         :      35.66       0.00       0.01      24.62       1.76       0.00       8.88       0.28       0.11
  setppc           :      34.23       0.00       0.00      33.19       0.05       0.00       0.39       0.31       0.29
  and              :       0.77       0.00       0.06       0.20       0.05       0.00       0.43       0.02       0.01
  linear           :     156.49       0.00       0.02     122.09      18.51       0.00      14.40       0.93       0.54
  logicor          :       2.99       0.00       0.00       2.84       0.00       0.00       0.00       0.15       0.00
  bounddisjunction :       4.81       0.00       0.00       4.77       0.00       0.00       0.00       0.04       0.00
  countsols        :       0.00       0.00       0.00       0.00       0.00       0.00       0.00       0.00       0.00
Propagators        : #Propagate   #ResProp    Cutoffs    DomReds
  dualfix          :          2          0          0          0
  genvbounds       :          0          0          0          0
  obbt             :          0          0          0          0
  probing          :          0          0          0          0
  pseudoobj        :    5829059          0       6402         14
  redcost          :    3312753          0          0         28
  rootredcost      :         16          0          0          0
  vbounds          :    9305011        844          1        250
Propagator Timings :  TotalTime  SetupTime   Presolve  Propagate    ResProp    SB-Prop
  dualfix          :       0.00       0.00       0.00       0.00       0.00       0.00
  genvbounds       :       1.19       0.00       0.00       1.19       0.00       0.00
  obbt             :       0.00       0.00       0.00       0.00       0.00       0.00
  probing          :       0.06       0.00       0.06       0.00       0.00       0.00
  pseudoobj        :       3.32       0.00       0.00       3.31       0.00       0.01
  redcost          :       7.44       0.00       0.00       7.43       0.00       0.01
  rootredcost      :       1.19       0.00       0.00       1.19       0.00       0.00
  vbounds          :       2.34       0.00       0.00       2.34       0.00       0.00
Conflict Analysis  :       Time      Calls    Success    DomReds  Conflicts   Literals    Reconvs ReconvLits   LP Iters
  propagation      :       5.19      41314      37247          -     467058       63.8        960       64.5          -
  infeasible LP    :       0.86       7717          2          -         31       33.4          0        0.0          0
  bound exceed. LP :       0.00          0          0          -          0        0.0          0        0.0          0
  strong branching :       0.00          0          0          -          0        0.0          0        0.0          0
  pseudo solution  :       0.00          0          0          -          0        0.0          0        0.0          -
  applied globally :       0.68          -          -          0      22394       19.6          -          -          -
  applied locally  :          -          -          -          0      12980       34.5          -          -          -
Separators         :   ExecTime  SetupTime      Calls    Cutoffs    DomReds       Cuts    Applied      Conss
  cut pool         :       0.00                    15          -          -        767          -          -    (maximal pool size: 727)
  cgmip            :       0.00       0.00          0          0          0          0          0          0
  clique           :       0.02       0.00         16          0          0         75         30          0
  closecuts        :       0.00       0.00          0          0          0          0          0          0
  cmir             :       0.04       0.00         10          0          0        372        235          0
  disjunctive      :       0.00       0.00          0          0          0          0          0          0
  eccuts           :       0.00       0.00          0          0          0          0          0          0
  flowcover        :       0.33       0.00         15          0          0        243         28          0
  gomory           :       0.10       0.00         10          0          0          9          9          0
  impliedbounds    :       0.00       0.00         16          0          0        659         73          0
  intobj           :       0.00       0.00          0          0          0          0          0          0
  mcf              :       0.00       0.00          1          0          0          0          0          0
  oddcycle         :       0.00       0.00          0          0          0          0          0          0
  rapidlearning    :       0.00       0.00          0          0          0          0          0          0
  strongcg         :       0.10       0.00         16          0          0          0          0          0
  zerohalf         :       0.00       0.00          0          0          0          0          0          0
Pricers            :   ExecTime  SetupTime      Calls       Vars
  problem variables:       0.00          -          0          0
Branching Rules    :   ExecTime  SetupTime   BranchLP  BranchExt   BranchPS    Cutoffs    DomReds       Cuts      Conss   Children
  allfullstrong    :       0.00       0.00          0          0          0          0          0          0          0          0
  cloud            :       0.00       0.00          0          0          0          0          0          0          0          0
  distribution     :       0.00       0.00          0          0          0          0          0          0          0          0
  fullstrong       :       0.00       0.00          0          0          0          0          0          0          0          0
  inference        :       0.00       0.00          0          0          3          0          0          0          0          6
  leastinf         :       0.00       0.00          0          0          0          0          0          0          0          0
  mostinf          :       0.00       0.00          0          0          0          0          0          0          0          0
  multaggr         :       0.00       0.00          0          0          0          0          0          0          0          0
  nodereopt        :       0.00       0.00          0          0          0          0          0          0          0          0
  pscost           :       0.00       0.00          0          0          0          0          0          0          0          0
  random           :       0.00       0.00          0          0          0          0          0          0          0          0
  relpscost        :      22.89       0.00    1485005          0          0          0      42206          0       -104    2964434
Primal Heuristics  :   ExecTime  SetupTime      Calls      Found       Best
  LP solutions     :       0.00          -          -          4          -
  pseudo solutions :       0.00          -          -          0          -
  strong branching :       0.02          -          -          1          -
  SpaGreedy        :     571.88       0.00     159264          0          0
  actconsdiving    :       0.00       0.00          0          0          0
  bound            :       0.00       0.00          0          0          0
  clique           :       0.00       0.00          0          0          0
  coefdiving       :      98.91       0.00      25726          0          0
  crossover        :      39.07       0.00         32         10          0
  dins             :       0.00       0.00          0          0          0
  distributiondivin:     122.39       0.00      27301          0          0
  dualval          :       0.00       0.00          0          0          0
  feaspump         :       0.07       0.00          7          0          0
  fixandinfer      :       0.00       0.00          0          0          0
  fracdiving       :      94.33       0.00      28928          1          1
  guideddiving     :      96.37       0.00      33675          3          3
  indicator        :       0.19       0.00          0          0          0
  intdiving        :       0.00       0.00          0          0          0
  intshifting      :       1.90       0.00        459          0          0
  linesearchdiving :      95.96       0.00      33676          1          1
  localbranching   :       0.00       0.00          0          0          0
  mutation         :       0.00       0.00          0          0          0
  nlpdiving        :       0.01       0.00          0          0          0
  objpscostdiving  :      26.03       0.00       9606         32          0
  octane           :       0.00       0.00          0          0          0
  ofins            :       0.00       0.00          0          0          0
  oneopt           :       0.19       0.00         15          0          0
  proximity        :       0.00       0.00          0          0          0
  pscostdiving     :     103.35       0.00      24894          3          3
  randrounding     :       0.94       0.00     103021          0          0
  rens             :       0.00       0.00          0          0          0
  reoptsols        :       0.00       0.00          0          0          0
  rins             :       2.62       0.00         68          1          0
  rootsoldiving    :      37.53       0.00      15500         85          0
  rounding         :       0.55       0.00      17218          0          0
  shiftandpropagate:       0.02       0.00          1          1          1
  shifting         :       1.50       0.00       5550          0          0
  simplerounding   :       0.21       0.00          0          0          0
  subnlp           :       0.18       0.00          0          0          0
  trivial          :       0.01       0.00          2          0          0
  trivialnegation  :       0.00       0.00          0          0          0
  trysol           :       0.39       0.00          0          0          0
  twoopt           :       0.00       0.00          0          0          0
  undercover       :       0.00       0.00          1          0          0
  vbounds          :       0.00       0.00          0          0          0
  veclendiving     :      96.82       0.00      32048          2          2
  zeroobj          :       0.00       0.00          0          0          0
  zirounding       :       0.30       0.00       1000          0          0
  other solutions  :          -          -          -          0          -
Diving Statistics  :      Calls      Nodes   LP Iters Backtracks   MinDepth   MaxDepth   AvgDepth  NLeafSols  MinSolDpt  MaxSolDpt  AvgSolDpt
  actconsdiving    :          0          -          -          -          -          -          -          -          -          -          -
  coefdiving       :      25726     168616    2610656      19952         15         63       31.7          -          -          -          -
  distributiondivin:      27301     164041    2610713      12499         16         64       31.7          -          -          -          -
  fracdiving       :      28928     173466    2620251      13662         15         56       31.7          -          -          -          -
  guideddiving     :      33675     185964    2493555      19857         13         67       31.7          -          -          -          -
  linesearchdiving :      33676     186126    2510837      16137         13         48       31.8          -          -          -          -
  pscostdiving     :      24894     165173    2645277      12750         13         68       32.0          -          -          -          -
  veclendiving     :      32048     185077    2628234      11884         15         39       31.8          -          -          -          -
LP                 :       Time      Calls Iterations  Iter/call   Iter/sec  Time-0-It Calls-0-It
  primal LP        :       0.00          3          0       0.00          -       0.00          3
  dual LP          :    1411.14    2074167   52170476      25.22   36970.45       2.76       5574
  lex dual LP      :       0.00          0          0       0.00          -
  barrier LP       :       0.00          0          0       0.00          -       0.00          0
  diving/probing LP:     489.51     579847   19373236      33.41   39576.79
  strong branching :      12.89       4879     315655      64.70   24488.36
    (at root node) :          -         45       8084     179.64          -
  conflict analysis:       0.00          0          0       0.00          -
B&B Tree           :
  number of runs   :          1
  nodes            :    1615487 (1482220 internal, 133267 leaves)
  nodes (total)    :    1615487 (1482220 internal, 133267 leaves)
  nodes left       :    1346368
  max depth        :         37
  max depth (total):         37
  backtracks       :     346709 (21.5%)
  delayed cutoffs  :       2583
  repropagations   :      11071 (218748 domain reductions, 2178 cutoffs)
  avg switch length:       4.66
  switching time   :     246.86
Root Node          :
  First LP value   : +3.00000000000000e+00
  First LP Iters   :        595
  First LP Time    :       0.00
  Final Dual Bound : +8.55055844550948e-01
  Final Root Iters :       4746
Solution           :
  Solutions found  :        144 (16 improvements)
  First Solution   : +0.00000000000000e+00   (in run 1, after 1 nodes, 0.11 seconds, depth 23, found by <shiftandpropagate>)
  Gap First Sol.   :   infinite
  Gap Last Sol.    :   13910.62 %
  Primal Bound     : +3.30426299937775e-06   (in run 1, after 1180005 nodes, 2682.31 seconds, depth 32, found by <linesearchdiving>)
  Dual Bound       : +4.47646321220509e-04
  Gap              :   13447.54 %
  Avg. Gap         :      99.35 % (357672.02 primal-dual integral)
